H4 C1
1.0
  10.0000000000000000    0.0000000000000000    0.0000000000000006
   0.0000000000000016   10.0000000000000000    0.0000000000000006
   0.0000000000000000    0.0000000000000000   10.0000000000000000
H C
4 1
direct
  -0.0889980000000000   -0.0629310000000000    0.0000000000000000 H
  -0.0000000000000000    0.0629310000000000   -0.0889980000000000 H
  -0.0000000000000000    0.0629310000000000    0.0889980000000000 H
   0.0889980000000000   -0.0629310000000000   -0.0000000000000000 H
   0.0000000000000000    0.0000000000000000    0.0000000000000000 C
