! generated by mcif2qewan.py
num_bands = 206
num_wann = 82
dis_num_iter = 200
num_iter = 0
dis_froz_max = 0
dis_froz_min = -1000
spinors = .true.
write_hr = .true.
write_tb = .false.
bands_plot = .true.
fermi_surface_plot = .false.
wannier_plot = .false.
exclude_bands = 1-24

begin projections
Co: s,p,d 
Sn: s,p 
S: p 
end projections

begin unit_cell_cart
ang
   4.6662464736     0.0000000000     2.6801697816
   1.5513931694     4.4007994031     2.6801697816
   0.0000000000     0.0000000000     5.3811863200
end unit_cell_cart

begin atoms_frac
Co      0.5000000000     0.0000000000     0.0000000000
Co      0.0000000000     0.5000000000     0.0000000000
Co      0.0000000000     0.0000000000     0.5000000000
Sn      0.5000000000     0.5000000000     0.5000000000
Sn      0.0000000000     0.0000000000     0.0000000000
S       0.7195100000     0.7195100000     0.7195100000
S       0.2804900000     0.2804900000     0.2804900000
end atoms_frac

mp_grid: 8 8 8

begin kpoints
  0.0000000000    0.0000000000    0.0000000000
  0.0000000000    0.0000000000    0.1250000000
  0.0000000000    0.0000000000    0.2500000000
  0.0000000000    0.0000000000    0.3750000000
  0.0000000000    0.0000000000   -0.5000000000
  0.0000000000    0.0000000000   -0.3750000000
  0.0000000000    0.0000000000   -0.2500000000
  0.0000000000    0.0000000000   -0.1250000000
  0.0000000000    0.1250000000    0.0000000000
  0.0000000000    0.1250000000    0.1250000000
  0.0000000000    0.1250000000    0.2500000000
  0.0000000000    0.1250000000    0.3750000000
  0.0000000000    0.1250000000   -0.5000000000
  0.0000000000    0.1250000000   -0.3750000000
  0.0000000000    0.1250000000   -0.2500000000
  0.0000000000    0.1250000000   -0.1250000000
  0.0000000000    0.2500000000    0.0000000000
  0.0000000000    0.2500000000    0.1250000000
  0.0000000000    0.2500000000    0.2500000000
  0.0000000000    0.2500000000    0.3750000000
  0.0000000000    0.2500000000   -0.5000000000
  0.0000000000    0.2500000000   -0.3750000000
  0.0000000000    0.2500000000   -0.2500000000
  0.0000000000    0.2500000000   -0.1250000000
  0.0000000000    0.3750000000    0.0000000000
  0.0000000000    0.3750000000    0.1250000000
  0.0000000000    0.3750000000    0.2500000000
  0.0000000000    0.3750000000    0.3750000000
  0.0000000000    0.3750000000   -0.5000000000
  0.0000000000    0.3750000000   -0.3750000000
  0.0000000000    0.3750000000   -0.2500000000
  0.0000000000    0.3750000000   -0.1250000000
  0.0000000000   -0.5000000000    0.0000000000
  0.0000000000   -0.5000000000    0.1250000000
  0.0000000000   -0.5000000000    0.2500000000
  0.0000000000   -0.5000000000    0.3750000000
  0.0000000000   -0.5000000000   -0.5000000000
  0.0000000000   -0.5000000000   -0.3750000000
  0.0000000000   -0.5000000000   -0.2500000000
  0.0000000000   -0.5000000000   -0.1250000000
  0.0000000000   -0.3750000000    0.0000000000
  0.0000000000   -0.3750000000    0.1250000000
  0.0000000000   -0.3750000000    0.2500000000
  0.0000000000   -0.3750000000    0.3750000000
  0.0000000000   -0.3750000000   -0.5000000000
  0.0000000000   -0.3750000000   -0.3750000000
  0.0000000000   -0.3750000000   -0.2500000000
  0.0000000000   -0.3750000000   -0.1250000000
  0.0000000000   -0.2500000000    0.0000000000
  0.0000000000   -0.2500000000    0.1250000000
  0.0000000000   -0.2500000000    0.2500000000
  0.0000000000   -0.2500000000    0.3750000000
  0.0000000000   -0.2500000000   -0.5000000000
  0.0000000000   -0.2500000000   -0.3750000000
  0.0000000000   -0.2500000000   -0.2500000000
  0.0000000000   -0.2500000000   -0.1250000000
  0.0000000000   -0.1250000000    0.0000000000
  0.0000000000   -0.1250000000    0.1250000000
  0.0000000000   -0.1250000000    0.2500000000
  0.0000000000   -0.1250000000    0.3750000000
  0.0000000000   -0.1250000000   -0.5000000000
  0.0000000000   -0.1250000000   -0.3750000000
  0.0000000000   -0.1250000000   -0.2500000000
  0.0000000000   -0.1250000000   -0.1250000000
  0.1250000000    0.0000000000    0.0000000000
  0.1250000000    0.0000000000    0.1250000000
  0.1250000000    0.0000000000    0.2500000000
  0.1250000000    0.0000000000    0.3750000000
  0.1250000000    0.0000000000   -0.5000000000
  0.1250000000    0.0000000000   -0.3750000000
  0.1250000000    0.0000000000   -0.2500000000
  0.1250000000    0.0000000000   -0.1250000000
  0.1250000000    0.1250000000    0.0000000000
  0.1250000000    0.1250000000    0.1250000000
  0.1250000000    0.1250000000    0.2500000000
  0.1250000000    0.1250000000    0.3750000000
  0.1250000000    0.1250000000   -0.5000000000
  0.1250000000    0.1250000000   -0.3750000000
  0.1250000000    0.1250000000   -0.2500000000
  0.1250000000    0.1250000000   -0.1250000000
  0.1250000000    0.2500000000    0.0000000000
  0.1250000000    0.2500000000    0.1250000000
  0.1250000000    0.2500000000    0.2500000000
  0.1250000000    0.2500000000    0.3750000000
  0.1250000000    0.2500000000   -0.5000000000
  0.1250000000    0.2500000000   -0.3750000000
  0.1250000000    0.2500000000   -0.2500000000
  0.1250000000    0.2500000000   -0.1250000000
  0.1250000000    0.3750000000    0.0000000000
  0.1250000000    0.3750000000    0.1250000000
  0.1250000000    0.3750000000    0.2500000000
  0.1250000000    0.3750000000    0.3750000000
  0.1250000000    0.3750000000   -0.5000000000
  0.1250000000    0.3750000000   -0.3750000000
  0.1250000000    0.3750000000   -0.2500000000
  0.1250000000    0.3750000000   -0.1250000000
  0.1250000000   -0.5000000000    0.0000000000
  0.1250000000   -0.5000000000    0.1250000000
  0.1250000000   -0.5000000000    0.2500000000
  0.1250000000   -0.5000000000    0.3750000000
  0.1250000000   -0.5000000000   -0.5000000000
  0.1250000000   -0.5000000000   -0.3750000000
  0.1250000000   -0.5000000000   -0.2500000000
  0.1250000000   -0.5000000000   -0.1250000000
  0.1250000000   -0.3750000000    0.0000000000
  0.1250000000   -0.3750000000    0.1250000000
  0.1250000000   -0.3750000000    0.2500000000
  0.1250000000   -0.3750000000    0.3750000000
  0.1250000000   -0.3750000000   -0.5000000000
  0.1250000000   -0.3750000000   -0.3750000000
  0.1250000000   -0.3750000000   -0.2500000000
  0.1250000000   -0.3750000000   -0.1250000000
  0.1250000000   -0.2500000000    0.0000000000
  0.1250000000   -0.2500000000    0.1250000000
  0.1250000000   -0.2500000000    0.2500000000
  0.1250000000   -0.2500000000    0.3750000000
  0.1250000000   -0.2500000000   -0.5000000000
  0.1250000000   -0.2500000000   -0.3750000000
  0.1250000000   -0.2500000000   -0.2500000000
  0.1250000000   -0.2500000000   -0.1250000000
  0.1250000000   -0.1250000000    0.0000000000
  0.1250000000   -0.1250000000    0.1250000000
  0.1250000000   -0.1250000000    0.2500000000
  0.1250000000   -0.1250000000    0.3750000000
  0.1250000000   -0.1250000000   -0.5000000000
  0.1250000000   -0.1250000000   -0.3750000000
  0.1250000000   -0.1250000000   -0.2500000000
  0.1250000000   -0.1250000000   -0.1250000000
  0.2500000000    0.0000000000    0.0000000000
  0.2500000000    0.0000000000    0.1250000000
  0.2500000000    0.0000000000    0.2500000000
  0.2500000000    0.0000000000    0.3750000000
  0.2500000000    0.0000000000   -0.5000000000
  0.2500000000    0.0000000000   -0.3750000000
  0.2500000000    0.0000000000   -0.2500000000
  0.2500000000    0.0000000000   -0.1250000000
  0.2500000000    0.1250000000    0.0000000000
  0.2500000000    0.1250000000    0.1250000000
  0.2500000000    0.1250000000    0.2500000000
  0.2500000000    0.1250000000    0.3750000000
  0.2500000000    0.1250000000   -0.5000000000
  0.2500000000    0.1250000000   -0.3750000000
  0.2500000000    0.1250000000   -0.2500000000
  0.2500000000    0.1250000000   -0.1250000000
  0.2500000000    0.2500000000    0.0000000000
  0.2500000000    0.2500000000    0.1250000000
  0.2500000000    0.2500000000    0.2500000000
  0.2500000000    0.2500000000    0.3750000000
  0.2500000000    0.2500000000   -0.5000000000
  0.2500000000    0.2500000000   -0.3750000000
  0.2500000000    0.2500000000   -0.2500000000
  0.2500000000    0.2500000000   -0.1250000000
  0.2500000000    0.3750000000    0.0000000000
  0.2500000000    0.3750000000    0.1250000000
  0.2500000000    0.3750000000    0.2500000000
  0.2500000000    0.3750000000    0.3750000000
  0.2500000000    0.3750000000   -0.5000000000
  0.2500000000    0.3750000000   -0.3750000000
  0.2500000000    0.3750000000   -0.2500000000
  0.2500000000    0.3750000000   -0.1250000000
  0.2500000000   -0.5000000000    0.0000000000
  0.2500000000   -0.5000000000    0.1250000000
  0.2500000000   -0.5000000000    0.2500000000
  0.2500000000   -0.5000000000    0.3750000000
  0.2500000000   -0.5000000000   -0.5000000000
  0.2500000000   -0.5000000000   -0.3750000000
  0.2500000000   -0.5000000000   -0.2500000000
  0.2500000000   -0.5000000000   -0.1250000000
  0.2500000000   -0.3750000000    0.0000000000
  0.2500000000   -0.3750000000    0.1250000000
  0.2500000000   -0.3750000000    0.2500000000
  0.2500000000   -0.3750000000    0.3750000000
  0.2500000000   -0.3750000000   -0.5000000000
  0.2500000000   -0.3750000000   -0.3750000000
  0.2500000000   -0.3750000000   -0.2500000000
  0.2500000000   -0.3750000000   -0.1250000000
  0.2500000000   -0.2500000000    0.0000000000
  0.2500000000   -0.2500000000    0.1250000000
  0.2500000000   -0.2500000000    0.2500000000
  0.2500000000   -0.2500000000    0.3750000000
  0.2500000000   -0.2500000000   -0.5000000000
  0.2500000000   -0.2500000000   -0.3750000000
  0.2500000000   -0.2500000000   -0.2500000000
  0.2500000000   -0.2500000000   -0.1250000000
  0.2500000000   -0.1250000000    0.0000000000
  0.2500000000   -0.1250000000    0.1250000000
  0.2500000000   -0.1250000000    0.2500000000
  0.2500000000   -0.1250000000    0.3750000000
  0.2500000000   -0.1250000000   -0.5000000000
  0.2500000000   -0.1250000000   -0.3750000000
  0.2500000000   -0.1250000000   -0.2500000000
  0.2500000000   -0.1250000000   -0.1250000000
  0.3750000000    0.0000000000    0.0000000000
  0.3750000000    0.0000000000    0.1250000000
  0.3750000000    0.0000000000    0.2500000000
  0.3750000000    0.0000000000    0.3750000000
  0.3750000000    0.0000000000   -0.5000000000
  0.3750000000    0.0000000000   -0.3750000000
  0.3750000000    0.0000000000   -0.2500000000
  0.3750000000    0.0000000000   -0.1250000000
  0.3750000000    0.1250000000    0.0000000000
  0.3750000000    0.1250000000    0.1250000000
  0.3750000000    0.1250000000    0.2500000000
  0.3750000000    0.1250000000    0.3750000000
  0.3750000000    0.1250000000   -0.5000000000
  0.3750000000    0.1250000000   -0.3750000000
  0.3750000000    0.1250000000   -0.2500000000
  0.3750000000    0.1250000000   -0.1250000000
  0.3750000000    0.2500000000    0.0000000000
  0.3750000000    0.2500000000    0.1250000000
  0.3750000000    0.2500000000    0.2500000000
  0.3750000000    0.2500000000    0.3750000000
  0.3750000000    0.2500000000   -0.5000000000
  0.3750000000    0.2500000000   -0.3750000000
  0.3750000000    0.2500000000   -0.2500000000
  0.3750000000    0.2500000000   -0.1250000000
  0.3750000000    0.3750000000    0.0000000000
  0.3750000000    0.3750000000    0.1250000000
  0.3750000000    0.3750000000    0.2500000000
  0.3750000000    0.3750000000    0.3750000000
  0.3750000000    0.3750000000   -0.5000000000
  0.3750000000    0.3750000000   -0.3750000000
  0.3750000000    0.3750000000   -0.2500000000
  0.3750000000    0.3750000000   -0.1250000000
  0.3750000000   -0.5000000000    0.0000000000
  0.3750000000   -0.5000000000    0.1250000000
  0.3750000000   -0.5000000000    0.2500000000
  0.3750000000   -0.5000000000    0.3750000000
  0.3750000000   -0.5000000000   -0.5000000000
  0.3750000000   -0.5000000000   -0.3750000000
  0.3750000000   -0.5000000000   -0.2500000000
  0.3750000000   -0.5000000000   -0.1250000000
  0.3750000000   -0.3750000000    0.0000000000
  0.3750000000   -0.3750000000    0.1250000000
  0.3750000000   -0.3750000000    0.2500000000
  0.3750000000   -0.3750000000    0.3750000000
  0.3750000000   -0.3750000000   -0.5000000000
  0.3750000000   -0.3750000000   -0.3750000000
  0.3750000000   -0.3750000000   -0.2500000000
  0.3750000000   -0.3750000000   -0.1250000000
  0.3750000000   -0.2500000000    0.0000000000
  0.3750000000   -0.2500000000    0.1250000000
  0.3750000000   -0.2500000000    0.2500000000
  0.3750000000   -0.2500000000    0.3750000000
  0.3750000000   -0.2500000000   -0.5000000000
  0.3750000000   -0.2500000000   -0.3750000000
  0.3750000000   -0.2500000000   -0.2500000000
  0.3750000000   -0.2500000000   -0.1250000000
  0.3750000000   -0.1250000000    0.0000000000
  0.3750000000   -0.1250000000    0.1250000000
  0.3750000000   -0.1250000000    0.2500000000
  0.3750000000   -0.1250000000    0.3750000000
  0.3750000000   -0.1250000000   -0.5000000000
  0.3750000000   -0.1250000000   -0.3750000000
  0.3750000000   -0.1250000000   -0.2500000000
  0.3750000000   -0.1250000000   -0.1250000000
 -0.5000000000    0.0000000000    0.0000000000
 -0.5000000000    0.0000000000    0.1250000000
 -0.5000000000    0.0000000000    0.2500000000
 -0.5000000000    0.0000000000    0.3750000000
 -0.5000000000    0.0000000000   -0.5000000000
 -0.5000000000    0.0000000000   -0.3750000000
 -0.5000000000    0.0000000000   -0.2500000000
 -0.5000000000    0.0000000000   -0.1250000000
 -0.5000000000    0.1250000000    0.0000000000
 -0.5000000000    0.1250000000    0.1250000000
 -0.5000000000    0.1250000000    0.2500000000
 -0.5000000000    0.1250000000    0.3750000000
 -0.5000000000    0.1250000000   -0.5000000000
 -0.5000000000    0.1250000000   -0.3750000000
 -0.5000000000    0.1250000000   -0.2500000000
 -0.5000000000    0.1250000000   -0.1250000000
 -0.5000000000    0.2500000000    0.0000000000
 -0.5000000000    0.2500000000    0.1250000000
 -0.5000000000    0.2500000000    0.2500000000
 -0.5000000000    0.2500000000    0.3750000000
 -0.5000000000    0.2500000000   -0.5000000000
 -0.5000000000    0.2500000000   -0.3750000000
 -0.5000000000    0.2500000000   -0.2500000000
 -0.5000000000    0.2500000000   -0.1250000000
 -0.5000000000    0.3750000000    0.0000000000
 -0.5000000000    0.3750000000    0.1250000000
 -0.5000000000    0.3750000000    0.2500000000
 -0.5000000000    0.3750000000    0.3750000000
 -0.5000000000    0.3750000000   -0.5000000000
 -0.5000000000    0.3750000000   -0.3750000000
 -0.5000000000    0.3750000000   -0.2500000000
 -0.5000000000    0.3750000000   -0.1250000000
 -0.5000000000   -0.5000000000    0.0000000000
 -0.5000000000   -0.5000000000    0.1250000000
 -0.5000000000   -0.5000000000    0.2500000000
 -0.5000000000   -0.5000000000    0.3750000000
 -0.5000000000   -0.5000000000   -0.5000000000
 -0.5000000000   -0.5000000000   -0.3750000000
 -0.5000000000   -0.5000000000   -0.2500000000
 -0.5000000000   -0.5000000000   -0.1250000000
 -0.5000000000   -0.3750000000    0.0000000000
 -0.5000000000   -0.3750000000    0.1250000000
 -0.5000000000   -0.3750000000    0.2500000000
 -0.5000000000   -0.3750000000    0.3750000000
 -0.5000000000   -0.3750000000   -0.5000000000
 -0.5000000000   -0.3750000000   -0.3750000000
 -0.5000000000   -0.3750000000   -0.2500000000
 -0.5000000000   -0.3750000000   -0.1250000000
 -0.5000000000   -0.2500000000    0.0000000000
 -0.5000000000   -0.2500000000    0.1250000000
 -0.5000000000   -0.2500000000    0.2500000000
 -0.5000000000   -0.2500000000    0.3750000000
 -0.5000000000   -0.2500000000   -0.5000000000
 -0.5000000000   -0.2500000000   -0.3750000000
 -0.5000000000   -0.2500000000   -0.2500000000
 -0.5000000000   -0.2500000000   -0.1250000000
 -0.5000000000   -0.1250000000    0.0000000000
 -0.5000000000   -0.1250000000    0.1250000000
 -0.5000000000   -0.1250000000    0.2500000000
 -0.5000000000   -0.1250000000    0.3750000000
 -0.5000000000   -0.1250000000   -0.5000000000
 -0.5000000000   -0.1250000000   -0.3750000000
 -0.5000000000   -0.1250000000   -0.2500000000
 -0.5000000000   -0.1250000000   -0.1250000000
 -0.3750000000    0.0000000000    0.0000000000
 -0.3750000000    0.0000000000    0.1250000000
 -0.3750000000    0.0000000000    0.2500000000
 -0.3750000000    0.0000000000    0.3750000000
 -0.3750000000    0.0000000000   -0.5000000000
 -0.3750000000    0.0000000000   -0.3750000000
 -0.3750000000    0.0000000000   -0.2500000000
 -0.3750000000    0.0000000000   -0.1250000000
 -0.3750000000    0.1250000000    0.0000000000
 -0.3750000000    0.1250000000    0.1250000000
 -0.3750000000    0.1250000000    0.2500000000
 -0.3750000000    0.1250000000    0.3750000000
 -0.3750000000    0.1250000000   -0.5000000000
 -0.3750000000    0.1250000000   -0.3750000000
 -0.3750000000    0.1250000000   -0.2500000000
 -0.3750000000    0.1250000000   -0.1250000000
 -0.3750000000    0.2500000000    0.0000000000
 -0.3750000000    0.2500000000    0.1250000000
 -0.3750000000    0.2500000000    0.2500000000
 -0.3750000000    0.2500000000    0.3750000000
 -0.3750000000    0.2500000000   -0.5000000000
 -0.3750000000    0.2500000000   -0.3750000000
 -0.3750000000    0.2500000000   -0.2500000000
 -0.3750000000    0.2500000000   -0.1250000000
 -0.3750000000    0.3750000000    0.0000000000
 -0.3750000000    0.3750000000    0.1250000000
 -0.3750000000    0.3750000000    0.2500000000
 -0.3750000000    0.3750000000    0.3750000000
 -0.3750000000    0.3750000000   -0.5000000000
 -0.3750000000    0.3750000000   -0.3750000000
 -0.3750000000    0.3750000000   -0.2500000000
 -0.3750000000    0.3750000000   -0.1250000000
 -0.3750000000   -0.5000000000    0.0000000000
 -0.3750000000   -0.5000000000    0.1250000000
 -0.3750000000   -0.5000000000    0.2500000000
 -0.3750000000   -0.5000000000    0.3750000000
 -0.3750000000   -0.5000000000   -0.5000000000
 -0.3750000000   -0.5000000000   -0.3750000000
 -0.3750000000   -0.5000000000   -0.2500000000
 -0.3750000000   -0.5000000000   -0.1250000000
 -0.3750000000   -0.3750000000    0.0000000000
 -0.3750000000   -0.3750000000    0.1250000000
 -0.3750000000   -0.3750000000    0.2500000000
 -0.3750000000   -0.3750000000    0.3750000000
 -0.3750000000   -0.3750000000   -0.5000000000
 -0.3750000000   -0.3750000000   -0.3750000000
 -0.3750000000   -0.3750000000   -0.2500000000
 -0.3750000000   -0.3750000000   -0.1250000000
 -0.3750000000   -0.2500000000    0.0000000000
 -0.3750000000   -0.2500000000    0.1250000000
 -0.3750000000   -0.2500000000    0.2500000000
 -0.3750000000   -0.2500000000    0.3750000000
 -0.3750000000   -0.2500000000   -0.5000000000
 -0.3750000000   -0.2500000000   -0.3750000000
 -0.3750000000   -0.2500000000   -0.2500000000
 -0.3750000000   -0.2500000000   -0.1250000000
 -0.3750000000   -0.1250000000    0.0000000000
 -0.3750000000   -0.1250000000    0.1250000000
 -0.3750000000   -0.1250000000    0.2500000000
 -0.3750000000   -0.1250000000    0.3750000000
 -0.3750000000   -0.1250000000   -0.5000000000
 -0.3750000000   -0.1250000000   -0.3750000000
 -0.3750000000   -0.1250000000   -0.2500000000
 -0.3750000000   -0.1250000000   -0.1250000000
 -0.2500000000    0.0000000000    0.0000000000
 -0.2500000000    0.0000000000    0.1250000000
 -0.2500000000    0.0000000000    0.2500000000
 -0.2500000000    0.0000000000    0.3750000000
 -0.2500000000    0.0000000000   -0.5000000000
 -0.2500000000    0.0000000000   -0.3750000000
 -0.2500000000    0.0000000000   -0.2500000000
 -0.2500000000    0.0000000000   -0.1250000000
 -0.2500000000    0.1250000000    0.0000000000
 -0.2500000000    0.1250000000    0.1250000000
 -0.2500000000    0.1250000000    0.2500000000
 -0.2500000000    0.1250000000    0.3750000000
 -0.2500000000    0.1250000000   -0.5000000000
 -0.2500000000    0.1250000000   -0.3750000000
 -0.2500000000    0.1250000000   -0.2500000000
 -0.2500000000    0.1250000000   -0.1250000000
 -0.2500000000    0.2500000000    0.0000000000
 -0.2500000000    0.2500000000    0.1250000000
 -0.2500000000    0.2500000000    0.2500000000
 -0.2500000000    0.2500000000    0.3750000000
 -0.2500000000    0.2500000000   -0.5000000000
 -0.2500000000    0.2500000000   -0.3750000000
 -0.2500000000    0.2500000000   -0.2500000000
 -0.2500000000    0.2500000000   -0.1250000000
 -0.2500000000    0.3750000000    0.0000000000
 -0.2500000000    0.3750000000    0.1250000000
 -0.2500000000    0.3750000000    0.2500000000
 -0.2500000000    0.3750000000    0.3750000000
 -0.2500000000    0.3750000000   -0.5000000000
 -0.2500000000    0.3750000000   -0.3750000000
 -0.2500000000    0.3750000000   -0.2500000000
 -0.2500000000    0.3750000000   -0.1250000000
 -0.2500000000   -0.5000000000    0.0000000000
 -0.2500000000   -0.5000000000    0.1250000000
 -0.2500000000   -0.5000000000    0.2500000000
 -0.2500000000   -0.5000000000    0.3750000000
 -0.2500000000   -0.5000000000   -0.5000000000
 -0.2500000000   -0.5000000000   -0.3750000000
 -0.2500000000   -0.5000000000   -0.2500000000
 -0.2500000000   -0.5000000000   -0.1250000000
 -0.2500000000   -0.3750000000    0.0000000000
 -0.2500000000   -0.3750000000    0.1250000000
 -0.2500000000   -0.3750000000    0.2500000000
 -0.2500000000   -0.3750000000    0.3750000000
 -0.2500000000   -0.3750000000   -0.5000000000
 -0.2500000000   -0.3750000000   -0.3750000000
 -0.2500000000   -0.3750000000   -0.2500000000
 -0.2500000000   -0.3750000000   -0.1250000000
 -0.2500000000   -0.2500000000    0.0000000000
 -0.2500000000   -0.2500000000    0.1250000000
 -0.2500000000   -0.2500000000    0.2500000000
 -0.2500000000   -0.2500000000    0.3750000000
 -0.2500000000   -0.2500000000   -0.5000000000
 -0.2500000000   -0.2500000000   -0.3750000000
 -0.2500000000   -0.2500000000   -0.2500000000
 -0.2500000000   -0.2500000000   -0.1250000000
 -0.2500000000   -0.1250000000    0.0000000000
 -0.2500000000   -0.1250000000    0.1250000000
 -0.2500000000   -0.1250000000    0.2500000000
 -0.2500000000   -0.1250000000    0.3750000000
 -0.2500000000   -0.1250000000   -0.5000000000
 -0.2500000000   -0.1250000000   -0.3750000000
 -0.2500000000   -0.1250000000   -0.2500000000
 -0.2500000000   -0.1250000000   -0.1250000000
 -0.1250000000    0.0000000000    0.0000000000
 -0.1250000000    0.0000000000    0.1250000000
 -0.1250000000    0.0000000000    0.2500000000
 -0.1250000000    0.0000000000    0.3750000000
 -0.1250000000    0.0000000000   -0.5000000000
 -0.1250000000    0.0000000000   -0.3750000000
 -0.1250000000    0.0000000000   -0.2500000000
 -0.1250000000    0.0000000000   -0.1250000000
 -0.1250000000    0.1250000000    0.0000000000
 -0.1250000000    0.1250000000    0.1250000000
 -0.1250000000    0.1250000000    0.2500000000
 -0.1250000000    0.1250000000    0.3750000000
 -0.1250000000    0.1250000000   -0.5000000000
 -0.1250000000    0.1250000000   -0.3750000000
 -0.1250000000    0.1250000000   -0.2500000000
 -0.1250000000    0.1250000000   -0.1250000000
 -0.1250000000    0.2500000000    0.0000000000
 -0.1250000000    0.2500000000    0.1250000000
 -0.1250000000    0.2500000000    0.2500000000
 -0.1250000000    0.2500000000    0.3750000000
 -0.1250000000    0.2500000000   -0.5000000000
 -0.1250000000    0.2500000000   -0.3750000000
 -0.1250000000    0.2500000000   -0.2500000000
 -0.1250000000    0.2500000000   -0.1250000000
 -0.1250000000    0.3750000000    0.0000000000
 -0.1250000000    0.3750000000    0.1250000000
 -0.1250000000    0.3750000000    0.2500000000
 -0.1250000000    0.3750000000    0.3750000000
 -0.1250000000    0.3750000000   -0.5000000000
 -0.1250000000    0.3750000000   -0.3750000000
 -0.1250000000    0.3750000000   -0.2500000000
 -0.1250000000    0.3750000000   -0.1250000000
 -0.1250000000   -0.5000000000    0.0000000000
 -0.1250000000   -0.5000000000    0.1250000000
 -0.1250000000   -0.5000000000    0.2500000000
 -0.1250000000   -0.5000000000    0.3750000000
 -0.1250000000   -0.5000000000   -0.5000000000
 -0.1250000000   -0.5000000000   -0.3750000000
 -0.1250000000   -0.5000000000   -0.2500000000
 -0.1250000000   -0.5000000000   -0.1250000000
 -0.1250000000   -0.3750000000    0.0000000000
 -0.1250000000   -0.3750000000    0.1250000000
 -0.1250000000   -0.3750000000    0.2500000000
 -0.1250000000   -0.3750000000    0.3750000000
 -0.1250000000   -0.3750000000   -0.5000000000
 -0.1250000000   -0.3750000000   -0.3750000000
 -0.1250000000   -0.3750000000   -0.2500000000
 -0.1250000000   -0.3750000000   -0.1250000000
 -0.1250000000   -0.2500000000    0.0000000000
 -0.1250000000   -0.2500000000    0.1250000000
 -0.1250000000   -0.2500000000    0.2500000000
 -0.1250000000   -0.2500000000    0.3750000000
 -0.1250000000   -0.2500000000   -0.5000000000
 -0.1250000000   -0.2500000000   -0.3750000000
 -0.1250000000   -0.2500000000   -0.2500000000
 -0.1250000000   -0.2500000000   -0.1250000000
 -0.1250000000   -0.1250000000    0.0000000000
 -0.1250000000   -0.1250000000    0.1250000000
 -0.1250000000   -0.1250000000    0.2500000000
 -0.1250000000   -0.1250000000    0.3750000000
 -0.1250000000   -0.1250000000   -0.5000000000
 -0.1250000000   -0.1250000000   -0.3750000000
 -0.1250000000   -0.1250000000   -0.2500000000
 -0.1250000000   -0.1250000000   -0.1250000000
end kpoints

begin kpoint_path
G  0.000000  0.000000  0.000000   L  0.500000  0.000000  0.000000
L  0.500000  0.000000  0.000000   B_1  0.500000  0.250485  -0.250485
B  0.749515  0.500000  0.250485   Z  0.500000  0.500000  0.500000
Z  0.500000  0.500000  0.500000   G  0.000000  0.000000  0.000000
G  0.000000  0.000000  0.000000   X  0.375243  0.000000  -0.375243
Q  0.624757  0.375243  0.000000   F  0.500000  0.500000  0.000000
F  0.500000  0.500000  0.000000   P_1  0.624757  0.624757  0.250485
P_1  0.624757  0.624757  0.250485   Z  0.500000  0.500000  0.500000
L  0.500000  0.000000  0.000000   P  0.749515  0.375243  0.375243
end kpoint_path
