! generated by cif2x.py
&control
    prefix = 'pwscf'
    pseudo_dir = './pseudo'
    outdir = './work'
    calculation = 'scf'
/

&system
    ibrav = 0
    nat = 10
    ntyp = 4
    ecutwfc = 46.6494612029883
    ecutrho = 323.024651753927
    occupations = 'smearing'
    smearing = 'm-p'
    degauss = 0.01
/

&electrons
    mixing_beta = 0.1
    conv_thr = 1e-08
/
CELL_PARAMETERS {angstrom}
10.000000  0.000000  0.000000
0.000000  10.000000  0.000000
0.000000  0.000000  10.000000

ATOMIC_SPECIES
H  1.007940  H.pbe-rrkjus_psl.0.1.UPF
C  12.010700  C.pbe-n-rrkjus_psl.0.1.UPF
N  14.006700  N.pbe-n-rrkjus_psl.0.1.UPF
O  15.999400  O.pbe-n-rrkjus_psl.0.1.UPF

ATOMIC_POSITIONS {crystal}
H  0.823430  0.940199  0.016248
H  0.902254  0.005270  0.161864
H  0.132873  0.829475  0.914103
H  0.779166  0.172712  0.035090
H  0.937070  0.211263  0.023544
C  0.901508  0.011044  0.050823
C  0.038510  0.969626  0.001631
N  0.867313  0.144692  0.997740
O  0.043870  0.848253  0.942278
O  0.144105  0.029576  0.010819

K_POINTS {automatic}
5  5  5  0  0  0

