H5 C2 N1 O2
1.0
  10.0000000000000000    0.0000000000000000    0.0000000000000006
   0.0000000000000016   10.0000000000000000    0.0000000000000006
   0.0000000000000000    0.0000000000000000   10.0000000000000000
H C N O
5 2 1 2
direct
   0.8234303800000000    0.9401988800000000    0.0162482500000000 H
   0.9022543800000000    0.0052698800000000    0.1618642500000000 H
   0.1328733800000000    0.8294748800000000    0.9141032500000000 H
   0.7791663799999999    0.1727118800000000    0.0350902500000000 H
   0.9370703800000000    0.2112628800000000    0.0235442500000000 H
   0.9015083800000000    0.0110438800000000    0.0508232500000000 C
   0.0385103800000000    0.9696258800000001    0.0016312500000000 C
   0.8673133800000000    0.1446918800000000    0.9977402500000000 N
   0.0438703800000000    0.8482528800000000    0.9422782500000000 O
   0.1441053800000000    0.0295758800000000    0.0108192500000000 O
