! generated by cif2x.py
&control
    prefix = 'pwscf'
    pseudo_dir = './pseudo'
    outdir = './work'
    calculation = 'scf'
/

&system
    ibrav = 0
    nat = 63
    ntyp = 1
    ecutwfc = 39.1032548290553
    ecutrho = 401.319424092551
    occupations = 'smearing'
    smearing = 'm-p'
    degauss = 0.01
/

&electrons
    mixing_beta = 0.1
    conv_thr = 1e-05
/
CELL_PARAMETERS {angstrom}
10.000000  0.000000  0.000000
0.000000  10.000000  0.000000
0.000000  0.000000  10.000000

ATOMIC_SPECIES
Pt  195.084000  Pt.pbe-n-rrkjus_psl.0.1.UPF

ATOMIC_POSITIONS {crystal}
Pt  -0.392000  -0.392000  -0.392000
Pt  -0.196000  -0.196000  -0.392000
Pt  -0.392000  -0.196000  -0.196000
Pt  -0.196000  -0.392000  -0.196000
Pt  -0.392000  -0.392000  0.000000
Pt  -0.196000  -0.196000  0.000000
Pt  -0.392000  -0.196000  0.196000
Pt  -0.196000  -0.392000  0.196000
Pt  -0.392000  -0.392000  0.392000
Pt  -0.196000  -0.196000  0.392000
Pt  -0.392000  0.000000  -0.392000
Pt  -0.196000  0.196000  -0.392000
Pt  -0.392000  0.196000  -0.196000
Pt  -0.196000  0.000000  -0.196000
Pt  -0.392000  0.000000  0.000000
Pt  -0.196000  0.196000  0.000000
Pt  -0.392000  0.196000  0.196000
Pt  -0.196000  0.000000  0.196000
Pt  -0.392000  0.000000  0.392000
Pt  -0.196000  0.196000  0.392000
Pt  -0.392000  0.392000  -0.392000
Pt  -0.196000  0.392000  -0.196000
Pt  -0.392000  0.392000  0.000000
Pt  -0.196000  0.392000  0.196000
Pt  -0.392000  0.392000  0.392000
Pt  0.000000  -0.392000  -0.392000
Pt  0.196000  -0.196000  -0.392000
Pt  0.000000  -0.196000  -0.196000
Pt  0.196000  -0.392000  -0.196000
Pt  0.000000  -0.392000  0.000000
Pt  0.196000  -0.196000  0.000000
Pt  0.000000  -0.196000  0.196000
Pt  0.196000  -0.392000  0.196000
Pt  0.000000  -0.392000  0.392000
Pt  0.196000  -0.196000  0.392000
Pt  0.000000  0.000000  -0.392000
Pt  0.196000  0.196000  -0.392000
Pt  -0.000000  0.196000  -0.196000
Pt  0.196000  0.000000  -0.196000
Pt  0.000000  0.000000  0.000000
Pt  0.196000  0.196000  -0.000000
Pt  -0.000000  0.196000  0.196000
Pt  0.196000  0.000000  0.196000
Pt  0.000000  0.000000  0.392000
Pt  0.196000  0.196000  0.392000
Pt  -0.000000  0.392000  -0.392000
Pt  0.196000  0.392000  -0.196000
Pt  -0.000000  0.392000  -0.000000
Pt  0.196000  0.392000  0.196000
Pt  -0.000000  0.392000  0.392000
Pt  0.392000  -0.392000  -0.392000
Pt  0.392000  -0.196000  -0.196000
Pt  0.392000  -0.392000  0.000000
Pt  0.392000  -0.196000  0.196000
Pt  0.392000  -0.392000  0.392000
Pt  0.392000  0.000000  -0.392000
Pt  0.392000  0.196000  -0.196000
Pt  0.392000  0.000000  -0.000000
Pt  0.392000  0.196000  0.196000
Pt  0.392000  0.000000  0.392000
Pt  0.392000  0.392000  -0.392000
Pt  0.392000  0.392000  -0.000000
Pt  0.392000  0.392000  0.392000

K_POINTS {automatic}
5  5  5  0  0  0

