! generated by cif2x.py
&control
    prefix = 'pwscf'
    pseudo_dir = './pseudo'
    outdir = './work'
    calculation = 'scf'
/

&system
    ibrav = 0
    nat = 8
    ntyp = 2
    ecutwfc = 40.7227652304711
    ecutrho = 162.891060921884
    occupations = 'smearing'
    smearing = 'm-p'
    degauss = 0.01
/

&electrons
    mixing_beta = 0.1
    conv_thr = 1e-08
/
CELL_PARAMETERS {angstrom}
5.620000  0.000000  0.000000
0.000000  5.620000  0.000000
0.000000  0.000000  5.620000

ATOMIC_SPECIES
Na  22.989769  Na.pbe-spn-rrkjus_psl.0.2.UPF
Cl  35.453000  Cl.pbe-n-rrkjus_psl.0.3.0.UPF

ATOMIC_POSITIONS {crystal}
Na  0.000000  0.000000  0.000000
Na  0.000000  0.500000  0.500000
Na  0.500000  0.000000  0.500000
Na  0.500000  0.500000  0.000000
Cl  0.500000  0.500000  0.500000
Cl  0.500000  0.000000  0.000000
Cl  0.000000  0.500000  0.000000
Cl  0.000000  0.000000  0.500000

K_POINTS {automatic}
8  8  8  0  0  0

