Nd8 Fe56 B4
1.0
   8.7760040000000004    0.0000000000000000    0.0000000000000005
   0.0000000000000014    8.7760040000000004    0.0000000000000005
   0.0000000000000000    0.0000000000000000   12.1194319999999998
Nd Fe B
8 56 4
direct
   0.8572750000000000    0.1427250000000000    0.0000000000000000 Nd
   0.3572750000000000    0.3572750000000000    0.5000000000000000 Nd
   0.6427250000000000    0.6427250000000000    0.5000000000000000 Nd
   0.1427250000000000    0.8572750000000000    0.0000000000000000 Nd
   0.7315750000000000    0.7315750000000000    0.0000000000000000 Nd
   0.7684250000000000    0.2315750000000000    0.5000000000000000 Nd
   0.2315750000000000    0.7684250000000000    0.5000000000000000 Nd
   0.2684250000000000    0.2684250000000000    0.0000000000000000 Nd
   0.5673450000000000    0.2248250000000000    0.1273000000000000 Fe
   0.4326550000000000    0.7751749999999999    0.1273000000000000 Fe
   0.2248250000000000    0.5673450000000000    0.8727000000000000 Fe
   0.7248250000000001    0.9326550000000000    0.6273000000000000 Fe
   0.2751750000000000    0.0673450000000000    0.6273000000000000 Fe
   0.9326550000000000    0.7248250000000001    0.3727000000000000 Fe
   0.0673450000000000    0.2751750000000000    0.3727000000000000 Fe
   0.7751749999999999    0.4326550000000000    0.8727000000000000 Fe
   0.4326550000000000    0.7751749999999999    0.8727000000000000 Fe
   0.5673450000000000    0.2248250000000000    0.8727000000000000 Fe
   0.7751749999999999    0.4326550000000000    0.1273000000000000 Fe
   0.2751750000000000    0.0673450000000000    0.3727000000000000 Fe
   0.7248250000000001    0.9326550000000000    0.3727000000000000 Fe
   0.0673450000000000    0.2751750000000000    0.6273000000000000 Fe
   0.9326550000000000    0.7248250000000001    0.6273000000000000 Fe
   0.2248250000000000    0.5673450000000000    0.1273000000000000 Fe
   0.3602170000000000    0.0367850000000000    0.1763060000000000 Fe
   0.6397830000000000    0.9632150000000000    0.1763060000000000 Fe
   0.0367850000000000    0.3602170000000000    0.8236940000000000 Fe
   0.5367850000000000    0.1397830000000000    0.6763060000000000 Fe
   0.4632150000000000    0.8602170000000000    0.6763060000000000 Fe
   0.1397830000000000    0.5367850000000000    0.3236940000000000 Fe
   0.8602170000000000    0.4632150000000000    0.3236940000000000 Fe
   0.9632150000000000    0.6397830000000000    0.8236940000000000 Fe
   0.6397830000000000    0.9632150000000000    0.8236940000000000 Fe
   0.3602170000000000    0.0367850000000000    0.8236940000000000 Fe
   0.9632150000000000    0.6397830000000000    0.1763060000000000 Fe
   0.4632150000000000    0.8602170000000000    0.3236940000000000 Fe
   0.5367850000000000    0.1397830000000000    0.3236940000000000 Fe
   0.8602170000000000    0.4632150000000000    0.6763060000000000 Fe
   0.1397830000000000    0.5367850000000000    0.6763060000000000 Fe
   0.0367850000000000    0.3602170000000000    0.1763060000000000 Fe
   0.9020560000000000    0.9020560000000000    0.7953789999999999 Fe
   0.0979440000000000    0.0979440000000000    0.7953789999999999 Fe
   0.9020560000000000    0.9020560000000000    0.2046210000000000 Fe
   0.4020560000000000    0.5979440000000000    0.2953790000000000 Fe
   0.5979440000000000    0.4020560000000000    0.2953790000000000 Fe
   0.5979440000000000    0.4020560000000000    0.7046210000000001 Fe
   0.4020560000000000    0.5979440000000000    0.7046210000000001 Fe
   0.0979440000000000    0.0979440000000000    0.2046210000000000 Fe
   0.6821810000000000    0.6821810000000000    0.7543200000000000 Fe
   0.3178190000000000    0.3178190000000000    0.7543200000000000 Fe
   0.6821810000000000    0.6821810000000000    0.2456800000000000 Fe
   0.1821810000000000    0.8178190000000000    0.2543200000000000 Fe
   0.8178190000000000    0.1821810000000000    0.2543200000000000 Fe
   0.8178190000000000    0.1821810000000000    0.7456800000000000 Fe
   0.1821810000000000    0.8178190000000000    0.7456800000000000 Fe
   0.3178190000000000    0.3178190000000000    0.2456800000000000 Fe
   0.0000000000000000    0.0000000000000000    0.6150790000000000 Fe
   0.5000000000000000    0.5000000000000000    0.1150790000000000 Fe
   0.5000000000000000    0.5000000000000000    0.8849210000000000 Fe
   0.0000000000000000    0.0000000000000000    0.3849210000000000 Fe
   0.5000000000000000    0.0000000000000000    0.0000000000000000 Fe
   0.5000000000000000    0.0000000000000000    0.5000000000000000 Fe
   0.0000000000000000    0.5000000000000000    0.5000000000000000 Fe
   0.0000000000000000    0.5000000000000000    0.0000000000000000 Fe
   0.6231810000000000    0.3768190000000000    0.0000000000000000 B
   0.1231810000000000    0.1231810000000000    0.5000000000000000 B
   0.8768190000000000    0.8768190000000000    0.5000000000000000 B
   0.3768190000000000    0.6231810000000000    0.0000000000000000 B
