! generated by cif2x.py
&control
    prefix = 'pwscf'
    pseudo_dir = './pseudo'
    outdir = './work'
    calculation = 'scf'
/

&system
    ibrav = 0
    nat = 68
    ntyp = 3
    ecutwfc = 63.926141049617
    ecutrho = 781.736943368579
    occupations = 'smearing'
    smearing = 'm-p'
    degauss = 0.01
/

&electrons
    mixing_beta = 0.1
    conv_thr = 1e-05
/
CELL_PARAMETERS {angstrom}
8.776004  0.000000  0.000000
0.000000  8.776004  0.000000
0.000000  0.000000  12.119432

ATOMIC_SPECIES
Nd  144.242000  Nd.pbe-spdn-rrkjus_psl.1.0.0.UPF
Fe  55.845000  Fe.pbe-spn-rrkjus_psl.0.2.1.UPF
B  10.811000  B.pbe-n-rrkjus_psl.0.1.UPF

ATOMIC_POSITIONS {crystal}
Nd  0.857275  0.142725  0.000000
Nd  0.357275  0.357275  0.500000
Nd  0.642725  0.642725  0.500000
Nd  0.142725  0.857275  0.000000
Nd  0.731575  0.731575  0.000000
Nd  0.768425  0.231575  0.500000
Nd  0.231575  0.768425  0.500000
Nd  0.268425  0.268425  0.000000
Fe  0.567345  0.224825  0.127300
Fe  0.432655  0.775175  0.127300
Fe  0.224825  0.567345  0.872700
Fe  0.724825  0.932655  0.627300
Fe  0.275175  0.067345  0.627300
Fe  0.932655  0.724825  0.372700
Fe  0.067345  0.275175  0.372700
Fe  0.775175  0.432655  0.872700
Fe  0.432655  0.775175  0.872700
Fe  0.567345  0.224825  0.872700
Fe  0.775175  0.432655  0.127300
Fe  0.275175  0.067345  0.372700
Fe  0.724825  0.932655  0.372700
Fe  0.067345  0.275175  0.627300
Fe  0.932655  0.724825  0.627300
Fe  0.224825  0.567345  0.127300
Fe  0.360217  0.036785  0.176306
Fe  0.639783  0.963215  0.176306
Fe  0.036785  0.360217  0.823694
Fe  0.536785  0.139783  0.676306
Fe  0.463215  0.860217  0.676306
Fe  0.139783  0.536785  0.323694
Fe  0.860217  0.463215  0.323694
Fe  0.963215  0.639783  0.823694
Fe  0.639783  0.963215  0.823694
Fe  0.360217  0.036785  0.823694
Fe  0.963215  0.639783  0.176306
Fe  0.463215  0.860217  0.323694
Fe  0.536785  0.139783  0.323694
Fe  0.860217  0.463215  0.676306
Fe  0.139783  0.536785  0.676306
Fe  0.036785  0.360217  0.176306
Fe  0.902056  0.902056  0.795379
Fe  0.097944  0.097944  0.795379
Fe  0.902056  0.902056  0.204621
Fe  0.402056  0.597944  0.295379
Fe  0.597944  0.402056  0.295379
Fe  0.597944  0.402056  0.704621
Fe  0.402056  0.597944  0.704621
Fe  0.097944  0.097944  0.204621
Fe  0.682181  0.682181  0.754320
Fe  0.317819  0.317819  0.754320
Fe  0.682181  0.682181  0.245680
Fe  0.182181  0.817819  0.254320
Fe  0.817819  0.182181  0.254320
Fe  0.817819  0.182181  0.745680
Fe  0.182181  0.817819  0.745680
Fe  0.317819  0.317819  0.245680
Fe  0.000000  0.000000  0.615079
Fe  0.500000  0.500000  0.115079
Fe  0.500000  0.500000  0.884921
Fe  0.000000  0.000000  0.384921
Fe  0.500000  0.000000  0.000000
Fe  0.500000  0.000000  0.500000
Fe  0.000000  0.500000  0.500000
Fe  0.000000  0.500000  0.000000
B  0.623181  0.376819  0.000000
B  0.123181  0.123181  0.500000
B  0.876819  0.876819  0.500000
B  0.376819  0.623181  0.000000

K_POINTS {automatic}
5  5  4  0  0  0

