Pt63
1.0
  20.0000000000000000    0.0000000000000000    0.0000000000000012
   0.0000000000000032   20.0000000000000000    0.0000000000000012
   0.0000000000000000    0.0000000000000000   20.0000000000000000
Pt
63
direct
  -0.1960000000000000   -0.1960000000000000   -0.1960000000000000 Pt
  -0.0980000000000000   -0.0980000000000000   -0.1960000000000000 Pt
  -0.1960000000000000   -0.0980000000000000   -0.0980000000000000 Pt
  -0.0980000000000000   -0.1960000000000000   -0.0980000000000000 Pt
  -0.1960000000000000   -0.1960000000000000    0.0000000000000000 Pt
  -0.0980000000000000   -0.0980000000000000    0.0000000000000000 Pt
  -0.1960000000000000   -0.0980000000000000    0.0980000000000001 Pt
  -0.0980000000000000   -0.1960000000000000    0.0980000000000001 Pt
  -0.1960000000000000   -0.1960000000000000    0.1960000000000000 Pt
  -0.0980000000000000   -0.0980000000000000    0.1960000000000000 Pt
  -0.1960000000000000    0.0000000000000000   -0.1960000000000000 Pt
  -0.0980000000000001    0.0980000000000000   -0.1960000000000000 Pt
  -0.1960000000000000    0.0980000000000000   -0.0980000000000000 Pt
  -0.0980000000000000    0.0000000000000000   -0.0980000000000000 Pt
  -0.1960000000000000    0.0000000000000000    0.0000000000000000 Pt
  -0.0980000000000001    0.0980000000000000    0.0000000000000000 Pt
  -0.1960000000000000    0.0980000000000000    0.0980000000000000 Pt
  -0.0980000000000000    0.0000000000000000    0.0980000000000000 Pt
  -0.1960000000000000    0.0000000000000000    0.1960000000000000 Pt
  -0.0980000000000001    0.0980000000000000    0.1960000000000000 Pt
  -0.1960000000000000    0.1960000000000000   -0.1960000000000000 Pt
  -0.0980000000000001    0.1960000000000000   -0.0980000000000000 Pt
  -0.1960000000000000    0.1960000000000000    0.0000000000000000 Pt
  -0.0980000000000001    0.1960000000000000    0.0980000000000000 Pt
  -0.1960000000000000    0.1960000000000000    0.1960000000000000 Pt
   0.0000000000000000   -0.1960000000000000   -0.1960000000000000 Pt
   0.0980000000000001   -0.0980000000000000   -0.1960000000000000 Pt
   0.0000000000000000   -0.0980000000000000   -0.0980000000000000 Pt
   0.0980000000000001   -0.1960000000000000   -0.0980000000000000 Pt
   0.0000000000000000   -0.1960000000000000    0.0000000000000000 Pt
   0.0980000000000001   -0.0980000000000000    0.0000000000000000 Pt
   0.0000000000000000   -0.0980000000000000    0.0980000000000000 Pt
   0.0980000000000001   -0.1960000000000000    0.0980000000000000 Pt
   0.0000000000000000   -0.1960000000000000    0.1960000000000000 Pt
   0.0980000000000001   -0.0980000000000000    0.1960000000000000 Pt
   0.0000000000000000    0.0000000000000000   -0.1960000000000000 Pt
   0.0980000000000000    0.0980000000000000   -0.1960000000000000 Pt
  -0.0000000000000000    0.0980000000000000   -0.0980000000000000 Pt
   0.0980000000000000    0.0000000000000000   -0.0980000000000000 Pt
   0.0000000000000000    0.0000000000000000    0.0000000000000000 Pt
   0.0980000000000000    0.0980000000000000   -0.0000000000000000 Pt
  -0.0000000000000000    0.0980000000000000    0.0980000000000000 Pt
   0.0980000000000000    0.0000000000000000    0.0980000000000000 Pt
   0.0000000000000000    0.0000000000000000    0.1960000000000000 Pt
   0.0980000000000000    0.0980000000000000    0.1960000000000000 Pt
  -0.0000000000000000    0.1960000000000000   -0.1960000000000000 Pt
   0.0980000000000000    0.1960000000000000   -0.0980000000000001 Pt
  -0.0000000000000000    0.1960000000000000   -0.0000000000000000 Pt
   0.0980000000000000    0.1960000000000000    0.0980000000000000 Pt
  -0.0000000000000000    0.1960000000000000    0.1960000000000000 Pt
   0.1960000000000000   -0.1960000000000000   -0.1960000000000000 Pt
   0.1960000000000000   -0.0980000000000000   -0.0980000000000000 Pt
   0.1960000000000000   -0.1960000000000000    0.0000000000000000 Pt
   0.1960000000000000   -0.0980000000000000    0.0980000000000000 Pt
   0.1960000000000000   -0.1960000000000000    0.1960000000000000 Pt
   0.1960000000000000    0.0000000000000000   -0.1960000000000000 Pt
   0.1960000000000000    0.0980000000000000   -0.0980000000000001 Pt
   0.1960000000000000    0.0000000000000000   -0.0000000000000000 Pt
   0.1960000000000000    0.0980000000000000    0.0980000000000000 Pt
   0.1960000000000000    0.0000000000000000    0.1960000000000000 Pt
   0.1960000000000000    0.1960000000000000   -0.1960000000000000 Pt
   0.1960000000000000    0.1960000000000000   -0.0000000000000000 Pt
   0.1960000000000000    0.1960000000000000    0.1960000000000000 Pt
