ALGO = Fast
EDIFF = 1e-05
EDIFFG = -0.04
ENCUT = 600
IBAND = 171 172 173 174
IBRION = 1
ICHARG = 1
ISIF = 3
ISMEAR = 0
KPUSE = 1
LCHARG = False
LREAL = Auto
LSEPB = True
LSEPK = True
LVHAR = False
LVTOT = False
LWAVE = False
MAXMIX = 40
NCORE = 8
NEDOS = 1000
NELM = 200
NELMIN = 4
NSW = 100
POTIM = 0.3
PREC = accurate
SIGMA = 0.05
