Co3 Sn2 S2
1.0
   4.6662464735684859    0.0000000000000000    2.6801697816490688
   1.5513931693981902    4.4007994030670119    2.6801697816490688
   0.0000000000000000    0.0000000000000000    5.3811863200000003
Co Sn S
3 2 2
direct
   0.5000000000000000    0.0000000000000000    0.0000000000000000 Co
   0.0000000000000000    0.5000000000000000    0.0000000000000000 Co
   0.0000000000000000    0.0000000000000000    0.5000000000000000 Co
   0.5000000000000000    0.5000000000000000    0.5000000000000000 Sn
   0.0000000000000000    0.0000000000000000    0.0000000000000000 Sn
   0.7195100000000000    0.7195100000000000    0.7195100000000000 S
   0.2804900000000000    0.2804900000000000    0.2804900000000000 S
