Fe8 Pt4 Rh4
1.0
   2.7540000000000000   -2.7540000000000000   -3.5299999999999998
   2.7540000000000000    2.7540000000000000   -3.5299999999999998
   5.5080000000000000    0.0000000000000000    7.0599999999999996
Fe Pt Rh
8 4 4
direct
   0.5000000000000000    0.5000000000000000    1.0000000000000000 Fe
   0.7500000000000000    0.7500000000000000    0.2500000000000000 Fe
   1.0000000000000000    1.0000000000000000    1.0000000000000000 Fe
   0.2500000000000000    0.2500000000000000    0.2500000000000000 Fe
   0.5000000000000000    0.5000000000000000    0.5000000000000000 Fe
   0.7500000000000000    0.7500000000000000    0.7500000000000000 Fe
   1.0000000000000000    1.0000000000000000    0.5000000000000000 Fe
   0.2500000000000000    0.2500000000000000    0.7500000000000000 Fe
   0.2500000000000000    0.7500000000000000    0.2500000000000000 Pt
   0.5000000000000000    1.0000000000000000    0.5000000000000000 Pt
   0.7500000000000000    0.2500000000000000    0.2500000000000000 Pt
   0.5000000000000000    1.0000000000000000    1.0000000000000000 Pt
   1.0000000000000000    0.5000000000000000    0.5000000000000000 Rh
   0.2500000000000000    0.7500000000000000    0.7500000000000000 Rh
   0.7500000000000000    0.2500000000000000    0.7500000000000000 Rh
   1.0000000000000000    0.5000000000000000    1.0000000000000000 Rh
