! generated by cif2x.py
&control
    prefix = 'pwscf'
    pseudo_dir = './pseudo'
    outdir = './work'
    calculation = 'scf'
/

&system
    ibrav = 0
    nat = 5
    ntyp = 2
    ecutwfc = 45.6557600347421
    ecutrho = 317.867423252014
    occupations = 'smearing'
    smearing = 'm-p'
    degauss = 0.01
/

&electrons
    mixing_beta = 0.1
    conv_thr = 1e-08
/
CELL_PARAMETERS {angstrom}
10.000000  0.000000  0.000000
0.000000  10.000000  0.000000
0.000000  0.000000  10.000000

ATOMIC_SPECIES
H  1.007940  H.pbe-rrkjus_psl.0.1.UPF
C  12.010700  C.pbe-n-rrkjus_psl.0.1.UPF

ATOMIC_POSITIONS {crystal}
H  0.911002  0.937069  0.000000
H  0.000000  0.062931  0.911002
H  0.000000  0.062931  0.088998
H  0.088998  0.937069  0.000000
C  0.000000  0.000000  0.000000

K_POINTS {automatic}
5  5  5  0  0  0

