! generated by mcif2qewan.py
&bands
  prefix = 'pwscf'
  outdir = './work'
  filband = 'bands.out'
/
