! generated by cif2x.py
&control
    prefix = 'pwscf'
    pseudo_dir = './pseudo'
    outdir = './work'
    calculation = 'scf'
/

&system
    ibrav = 0
    nat = 16
    ntyp = 3
    ecutwfc = 63.926141049617
    ecutrho = 781.736943368579
    occupations = 'smearing'
    smearing = 'm-p'
    degauss = 0.01
/

&electrons
    mixing_beta = 0.1
    conv_thr = 1e-05
/
CELL_PARAMETERS {angstrom}
0.000000  -2.754000  -3.530000
5.508000  0.000000  0.000000
0.000000  -5.508000  7.060000

ATOMIC_SPECIES
Fe  55.845000  Fe.pbe-spn-rrkjus_psl.0.2.1.UPF
Pt  195.084000  Pt.pbe-n-rrkjus_psl.0.1.UPF
Rh  102.905500  Rh.pbe-spn-rrkjus_psl.0.3.0.UPF

ATOMIC_POSITIONS {crystal}
Fe  0.500000  1.000000  0.250000
Fe  0.500000  0.500000  0.250000
Fe  1.000000  1.000000  1.000000
Fe  1.000000  0.500000  1.000000
Fe  0.500000  1.000000  0.750000
Fe  0.500000  0.500000  0.750000
Fe  1.000000  1.000000  0.500000
Fe  1.000000  0.500000  0.500000
Pt  1.000000  0.250000  0.250000
Pt  1.000000  0.750000  0.250000
Pt  0.500000  0.250000  1.000000
Pt  0.500000  0.750000  0.500000
Rh  0.500000  0.750000  1.000000
Rh  1.000000  0.250000  0.750000
Rh  1.000000  0.750000  0.750000
Rh  0.500000  0.250000  0.500000

K_POINTS {automatic}
10  8  5  0  0  0

