! generated by cif2x.py
&control
    prefix = 'pwscf'
    pseudo_dir = './pseudo'
    outdir = './work'
    calculation = 'scf'
/

&system
    ibrav = 0
    nat = 8
    ntyp = 2
    ecutwfc = 33.4473298586255
    ecutrho = 180.016829604973
    occupations = 'smearing'
    smearing = 'm-p'
    degauss = 0.01
/

&electrons
    mixing_beta = 0.1
    conv_thr = 1e-08
/
CELL_PARAMETERS {angstrom}
5.653700  0.000000  0.000000
0.000000  5.653700  0.000000
0.000000  0.000000  5.653700

ATOMIC_SPECIES
Ga  69.723000  Ga.pbe-dn-rrkjus_psl.0.2.UPF
As  74.921600  As.pbe-n-rrkjus_psl.0.2.UPF

ATOMIC_POSITIONS {crystal}
Ga  0.000000  0.000000  0.000000
Ga  0.000000  0.500000  0.500000
Ga  0.500000  0.000000  0.500000
Ga  0.500000  0.500000  0.000000
As  0.250000  0.250000  0.250000
As  0.250000  0.750000  0.750000
As  0.750000  0.250000  0.750000
As  0.750000  0.750000  0.250000

K_POINTS {automatic}
8  8  8  0  0  0

