! generated by cif2x.py
&control
    prefix = 'pwscf'
    pseudo_dir = './pseudo'
    outdir = './work'
    calculation = 'nscf'
/

&system
    ibrav = 0
    nat = 5
    ntyp = 3
    ecutwfc = 80.0
    ecutrho = 320.0
    nbnd = 60
    nosym = .true.
    noinv = .true.
/

&electrons
    conv_thr = 1e-08
/
CELL_PARAMETERS {angstrom}
3.842500  0.000000  0.000000
-0.000000  3.842500  0.000000
0.000000  0.000000  3.842500

ATOMIC_SPECIES
Sr  87.620000  Sr.ONCV_PBE-1.0.UPF
V  50.941500  V.ONCV_PBE-1.0.UPF
O  15.999400  O.ONCV_PBE-1.0.UPF

ATOMIC_POSITIONS {crystal}
Sr  0.000000  0.000000  0.000000
V  0.500000  0.500000  0.500000
O  0.500000  0.500000  0.000000
O  0.500000  0.000000  0.500000
O  0.000000  0.500000  0.500000

K_POINTS {crystal}
216
0.000000  0.000000  0.000000  0.004630
0.000000  0.000000  0.166667  0.004630
0.000000  0.000000  0.333333  0.004630
0.000000  0.000000  -0.500000  0.004630
0.000000  0.000000  -0.333333  0.004630
0.000000  0.000000  -0.166667  0.004630
0.000000  0.166667  0.000000  0.004630
0.000000  0.166667  0.166667  0.004630
0.000000  0.166667  0.333333  0.004630
0.000000  0.166667  -0.500000  0.004630
0.000000  0.166667  -0.333333  0.004630
0.000000  0.166667  -0.166667  0.004630
0.000000  0.333333  0.000000  0.004630
0.000000  0.333333  0.166667  0.004630
0.000000  0.333333  0.333333  0.004630
0.000000  0.333333  -0.500000  0.004630
0.000000  0.333333  -0.333333  0.004630
0.000000  0.333333  -0.166667  0.004630
0.000000  -0.500000  0.000000  0.004630
0.000000  -0.500000  0.166667  0.004630
0.000000  -0.500000  0.333333  0.004630
0.000000  -0.500000  -0.500000  0.004630
0.000000  -0.500000  -0.333333  0.004630
0.000000  -0.500000  -0.166667  0.004630
0.000000  -0.333333  0.000000  0.004630
0.000000  -0.333333  0.166667  0.004630
0.000000  -0.333333  0.333333  0.004630
0.000000  -0.333333  -0.500000  0.004630
0.000000  -0.333333  -0.333333  0.004630
0.000000  -0.333333  -0.166667  0.004630
0.000000  -0.166667  0.000000  0.004630
0.000000  -0.166667  0.166667  0.004630
0.000000  -0.166667  0.333333  0.004630
0.000000  -0.166667  -0.500000  0.004630
0.000000  -0.166667  -0.333333  0.004630
0.000000  -0.166667  -0.166667  0.004630
0.166667  0.000000  0.000000  0.004630
0.166667  0.000000  0.166667  0.004630
0.166667  0.000000  0.333333  0.004630
0.166667  0.000000  -0.500000  0.004630
0.166667  0.000000  -0.333333  0.004630
0.166667  0.000000  -0.166667  0.004630
0.166667  0.166667  0.000000  0.004630
0.166667  0.166667  0.166667  0.004630
0.166667  0.166667  0.333333  0.004630
0.166667  0.166667  -0.500000  0.004630
0.166667  0.166667  -0.333333  0.004630
0.166667  0.166667  -0.166667  0.004630
0.166667  0.333333  0.000000  0.004630
0.166667  0.333333  0.166667  0.004630
0.166667  0.333333  0.333333  0.004630
0.166667  0.333333  -0.500000  0.004630
0.166667  0.333333  -0.333333  0.004630
0.166667  0.333333  -0.166667  0.004630
0.166667  -0.500000  0.000000  0.004630
0.166667  -0.500000  0.166667  0.004630
0.166667  -0.500000  0.333333  0.004630
0.166667  -0.500000  -0.500000  0.004630
0.166667  -0.500000  -0.333333  0.004630
0.166667  -0.500000  -0.166667  0.004630
0.166667  -0.333333  0.000000  0.004630
0.166667  -0.333333  0.166667  0.004630
0.166667  -0.333333  0.333333  0.004630
0.166667  -0.333333  -0.500000  0.004630
0.166667  -0.333333  -0.333333  0.004630
0.166667  -0.333333  -0.166667  0.004630
0.166667  -0.166667  0.000000  0.004630
0.166667  -0.166667  0.166667  0.004630
0.166667  -0.166667  0.333333  0.004630
0.166667  -0.166667  -0.500000  0.004630
0.166667  -0.166667  -0.333333  0.004630
0.166667  -0.166667  -0.166667  0.004630
0.333333  0.000000  0.000000  0.004630
0.333333  0.000000  0.166667  0.004630
0.333333  0.000000  0.333333  0.004630
0.333333  0.000000  -0.500000  0.004630
0.333333  0.000000  -0.333333  0.004630
0.333333  0.000000  -0.166667  0.004630
0.333333  0.166667  0.000000  0.004630
0.333333  0.166667  0.166667  0.004630
0.333333  0.166667  0.333333  0.004630
0.333333  0.166667  -0.500000  0.004630
0.333333  0.166667  -0.333333  0.004630
0.333333  0.166667  -0.166667  0.004630
0.333333  0.333333  0.000000  0.004630
0.333333  0.333333  0.166667  0.004630
0.333333  0.333333  0.333333  0.004630
0.333333  0.333333  -0.500000  0.004630
0.333333  0.333333  -0.333333  0.004630
0.333333  0.333333  -0.166667  0.004630
0.333333  -0.500000  0.000000  0.004630
0.333333  -0.500000  0.166667  0.004630
0.333333  -0.500000  0.333333  0.004630
0.333333  -0.500000  -0.500000  0.004630
0.333333  -0.500000  -0.333333  0.004630
0.333333  -0.500000  -0.166667  0.004630
0.333333  -0.333333  0.000000  0.004630
0.333333  -0.333333  0.166667  0.004630
0.333333  -0.333333  0.333333  0.004630
0.333333  -0.333333  -0.500000  0.004630
0.333333  -0.333333  -0.333333  0.004630
0.333333  -0.333333  -0.166667  0.004630
0.333333  -0.166667  0.000000  0.004630
0.333333  -0.166667  0.166667  0.004630
0.333333  -0.166667  0.333333  0.004630
0.333333  -0.166667  -0.500000  0.004630
0.333333  -0.166667  -0.333333  0.004630
0.333333  -0.166667  -0.166667  0.004630
-0.500000  0.000000  0.000000  0.004630
-0.500000  0.000000  0.166667  0.004630
-0.500000  0.000000  0.333333  0.004630
-0.500000  0.000000  -0.500000  0.004630
-0.500000  0.000000  -0.333333  0.004630
-0.500000  0.000000  -0.166667  0.004630
-0.500000  0.166667  0.000000  0.004630
-0.500000  0.166667  0.166667  0.004630
-0.500000  0.166667  0.333333  0.004630
-0.500000  0.166667  -0.500000  0.004630
-0.500000  0.166667  -0.333333  0.004630
-0.500000  0.166667  -0.166667  0.004630
-0.500000  0.333333  0.000000  0.004630
-0.500000  0.333333  0.166667  0.004630
-0.500000  0.333333  0.333333  0.004630
-0.500000  0.333333  -0.500000  0.004630
-0.500000  0.333333  -0.333333  0.004630
-0.500000  0.333333  -0.166667  0.004630
-0.500000  -0.500000  0.000000  0.004630
-0.500000  -0.500000  0.166667  0.004630
-0.500000  -0.500000  0.333333  0.004630
-0.500000  -0.500000  -0.500000  0.004630
-0.500000  -0.500000  -0.333333  0.004630
-0.500000  -0.500000  -0.166667  0.004630
-0.500000  -0.333333  0.000000  0.004630
-0.500000  -0.333333  0.166667  0.004630
-0.500000  -0.333333  0.333333  0.004630
-0.500000  -0.333333  -0.500000  0.004630
-0.500000  -0.333333  -0.333333  0.004630
-0.500000  -0.333333  -0.166667  0.004630
-0.500000  -0.166667  0.000000  0.004630
-0.500000  -0.166667  0.166667  0.004630
-0.500000  -0.166667  0.333333  0.004630
-0.500000  -0.166667  -0.500000  0.004630
-0.500000  -0.166667  -0.333333  0.004630
-0.500000  -0.166667  -0.166667  0.004630
-0.333333  0.000000  0.000000  0.004630
-0.333333  0.000000  0.166667  0.004630
-0.333333  0.000000  0.333333  0.004630
-0.333333  0.000000  -0.500000  0.004630
-0.333333  0.000000  -0.333333  0.004630
-0.333333  0.000000  -0.166667  0.004630
-0.333333  0.166667  0.000000  0.004630
-0.333333  0.166667  0.166667  0.004630
-0.333333  0.166667  0.333333  0.004630
-0.333333  0.166667  -0.500000  0.004630
-0.333333  0.166667  -0.333333  0.004630
-0.333333  0.166667  -0.166667  0.004630
-0.333333  0.333333  0.000000  0.004630
-0.333333  0.333333  0.166667  0.004630
-0.333333  0.333333  0.333333  0.004630
-0.333333  0.333333  -0.500000  0.004630
-0.333333  0.333333  -0.333333  0.004630
-0.333333  0.333333  -0.166667  0.004630
-0.333333  -0.500000  0.000000  0.004630
-0.333333  -0.500000  0.166667  0.004630
-0.333333  -0.500000  0.333333  0.004630
-0.333333  -0.500000  -0.500000  0.004630
-0.333333  -0.500000  -0.333333  0.004630
-0.333333  -0.500000  -0.166667  0.004630
-0.333333  -0.333333  0.000000  0.004630
-0.333333  -0.333333  0.166667  0.004630
-0.333333  -0.333333  0.333333  0.004630
-0.333333  -0.333333  -0.500000  0.004630
-0.333333  -0.333333  -0.333333  0.004630
-0.333333  -0.333333  -0.166667  0.004630
-0.333333  -0.166667  0.000000  0.004630
-0.333333  -0.166667  0.166667  0.004630
-0.333333  -0.166667  0.333333  0.004630
-0.333333  -0.166667  -0.500000  0.004630
-0.333333  -0.166667  -0.333333  0.004630
-0.333333  -0.166667  -0.166667  0.004630
-0.166667  0.000000  0.000000  0.004630
-0.166667  0.000000  0.166667  0.004630
-0.166667  0.000000  0.333333  0.004630
-0.166667  0.000000  -0.500000  0.004630
-0.166667  0.000000  -0.333333  0.004630
-0.166667  0.000000  -0.166667  0.004630
-0.166667  0.166667  0.000000  0.004630
-0.166667  0.166667  0.166667  0.004630
-0.166667  0.166667  0.333333  0.004630
-0.166667  0.166667  -0.500000  0.004630
-0.166667  0.166667  -0.333333  0.004630
-0.166667  0.166667  -0.166667  0.004630
-0.166667  0.333333  0.000000  0.004630
-0.166667  0.333333  0.166667  0.004630
-0.166667  0.333333  0.333333  0.004630
-0.166667  0.333333  -0.500000  0.004630
-0.166667  0.333333  -0.333333  0.004630
-0.166667  0.333333  -0.166667  0.004630
-0.166667  -0.500000  0.000000  0.004630
-0.166667  -0.500000  0.166667  0.004630
-0.166667  -0.500000  0.333333  0.004630
-0.166667  -0.500000  -0.500000  0.004630
-0.166667  -0.500000  -0.333333  0.004630
-0.166667  -0.500000  -0.166667  0.004630
-0.166667  -0.333333  0.000000  0.004630
-0.166667  -0.333333  0.166667  0.004630
-0.166667  -0.333333  0.333333  0.004630
-0.166667  -0.333333  -0.500000  0.004630
-0.166667  -0.333333  -0.333333  0.004630
-0.166667  -0.333333  -0.166667  0.004630
-0.166667  -0.166667  0.000000  0.004630
-0.166667  -0.166667  0.166667  0.004630
-0.166667  -0.166667  0.333333  0.004630
-0.166667  -0.166667  -0.500000  0.004630
-0.166667  -0.166667  -0.333333  0.004630
-0.166667  -0.166667  -0.166667  0.004630

