! generated by mcif2qewan.py
&inputpp
  prefix = 'pwscf'
  outdir = './work'
  seedname = 'pwscf'
  irr_bz = .true.
/
