Ga4 As4
1.0
   5.6536999999999997    0.0000000000000000    0.0000000000000003
   0.0000000000000009    5.6536999999999997    0.0000000000000003
   0.0000000000000000    0.0000000000000000    5.6536999999999997
Ga As
4 4
direct
   0.0000000000000000    0.0000000000000000    0.0000000000000000 Ga
   0.0000000000000000    0.5000000000000000    0.5000000000000000 Ga
   0.5000000000000000    0.0000000000000000    0.5000000000000000 Ga
   0.5000000000000000    0.5000000000000000    0.0000000000000000 Ga
   0.2500000000000000    0.2500000000000000    0.2500000000000000 As
   0.2500000000000000    0.7500000000000000    0.7500000000000000 As
   0.7500000000000000    0.2500000000000000    0.7500000000000000 As
   0.7500000000000000    0.7500000000000000    0.2500000000000000 As
