! generated by cif2x.py
&control
    prefix = 'pwscf'
    pseudo_dir = './pseudo'
    outdir = './work'
    calculation = 'nscf'
/

&system
    ibrav = 2
    nat = 2
    ntyp = 2
    ecutwfc = 40.7227652304711
    ecutrho = 162.891060921884
    occupations = 'smearing'
    smearing = 'm-p'
    degauss = 0.01
    a = 5.62
/

&electrons
    mixing_beta = 0.1
    conv_thr = 1e-08
/
ATOMIC_SPECIES
Cl  35.453000  Cl.pbe-n-rrkjus_psl.0.3.0.UPF
Na  22.989769  Na.pbe-spn-rrkjus_psl.0.2.UPF

ATOMIC_POSITIONS {crystal}
Cl  0.500000  0.500000  0.500000
Na  0.000000  0.000000  0.000000

K_POINTS {automatic}
16  16  16  0  0  0

