! generated by mcif2qewan.py
&control
  calculation = 'bands'
  prefix = 'pwscf'
  pseudo_dir = '/home/username/PseudoPotentials'
  outdir = './work'
  verbosity = 'high'
  tstress = .true.
  tprnfor = .true.
/
&system
  nat = 7
  ntyp = 3
  ibrav = 0
  ecutwfc = 36.0
  ecutrho = 180.0
  occupations = 'smearing'
  smearing = 'm-p'
  degauss = 0.01
  noncolin = .true.
  nbnd = 230
  starting_magnetization(1) = 1.0
  angle1(1) = 0.0
  angle2(1) = 0.0
  starting_magnetization(2) = 1.0
  angle1(2) = 0.0
  angle2(2) = 0.0
  starting_magnetization(3) = 1.0
  angle1(3) = 0.0
  angle2(3) = 0.0
/
&electrons
  mixing_beta = 0.1
  conv_thr = 1.d-8
/
CELL_PARAMETERS {angstrom}
   4.6662464736     0.0000000000     2.6801697816
   1.5513931694     4.4007994031     2.6801697816
   0.0000000000     0.0000000000     5.3811863200

ATOMIC_SPECIES
Co   58.933195  Co.pbe-n-rrkjus_psl.0.2.3.UPF
Sn   118.710000  Sn.pbe-dn-rrkjus_psl.0.2.UPF
S    32.065000  S.pbe-n-rrkjus_psl.0.1.UPF

ATOMIC_POSITIONS {crystal}
Co      0.5000000000     0.0000000000     0.0000000000
Co      0.0000000000     0.5000000000     0.0000000000
Co      0.0000000000     0.0000000000     0.5000000000
Sn      0.5000000000     0.5000000000     0.5000000000
Sn      0.0000000000     0.0000000000     0.0000000000
S       0.7195100000     0.7195100000     0.7195100000
S       0.2804900000     0.2804900000     0.2804900000

K_POINTS {crystal_b}
13
  0.000000  0.000000  0.000000   22 ! G
  0.500000  0.000000  0.000000   18 ! L
  0.500000  0.250485  -0.250485    0 ! B_1
  0.749515  0.500000  0.250485   18 ! B
  0.500000  0.500000  0.500000   22 ! Z
  0.000000  0.000000  0.000000   27 ! G
  0.375243  0.000000  -0.375243    0 ! X
  0.624757  0.375243  0.000000    9 ! Q
  0.500000  0.500000  0.000000    9 ! F
  0.624757  0.624757  0.250485   16 ! P_1
  0.500000  0.500000  0.500000    0 ! Z
  0.500000  0.000000  0.000000   16 ! L
  0.749515  0.375243  0.375243    0 ! P
