Pt63
1.0
  10.0000000000000000    0.0000000000000000    0.0000000000000006
   0.0000000000000016   10.0000000000000000    0.0000000000000006
   0.0000000000000000    0.0000000000000000   10.0000000000000000
Pt
63
direct
   0.6080000000000000    0.6080000000000000    0.6080000000000000 Pt
   0.8040000000000000    0.8040000000000000    0.6080000000000000 Pt
   0.6080000000000000    0.8040000000000000    0.8040000000000000 Pt
   0.8040000000000000    0.6080000000000000    0.8040000000000000 Pt
   0.6080000000000000    0.6080000000000000    0.0000000000000000 Pt
   0.8040000000000000    0.8040000000000000    0.0000000000000000 Pt
   0.6080000000000000    0.8040000000000000    0.1960000000000000 Pt
   0.8040000000000000    0.6080000000000000    0.1960000000000000 Pt
   0.6080000000000000    0.6080000000000000    0.3920000000000000 Pt
   0.8040000000000000    0.8040000000000000    0.3920000000000000 Pt
   0.6080000000000000    0.0000000000000000    0.6080000000000000 Pt
   0.8040000000000000    0.1960000000000000    0.6080000000000000 Pt
   0.6080000000000000    0.1960000000000000    0.8040000000000000 Pt
   0.8040000000000000    0.0000000000000000    0.8040000000000000 Pt
   0.6080000000000000    0.0000000000000000    0.0000000000000000 Pt
   0.8040000000000000    0.1960000000000000    0.0000000000000000 Pt
   0.6080000000000000    0.1960000000000000    0.1960000000000000 Pt
   0.8040000000000000    0.0000000000000000    0.1960000000000000 Pt
   0.6080000000000000    0.0000000000000000    0.3920000000000000 Pt
   0.8040000000000000    0.1960000000000000    0.3920000000000000 Pt
   0.6080000000000000    0.3920000000000000    0.6080000000000000 Pt
   0.8040000000000000    0.3920000000000000    0.8040000000000000 Pt
   0.6080000000000000    0.3920000000000000    0.0000000000000000 Pt
   0.8040000000000000    0.3920000000000000    0.1960000000000000 Pt
   0.6080000000000000    0.3920000000000000    0.3920000000000000 Pt
   0.0000000000000000    0.6080000000000000    0.6080000000000000 Pt
   0.1960000000000000    0.8040000000000000    0.6080000000000000 Pt
   0.0000000000000000    0.8040000000000000    0.8040000000000000 Pt
   0.1960000000000000    0.6080000000000000    0.8040000000000000 Pt
   0.0000000000000000    0.6080000000000000    0.0000000000000000 Pt
   0.1960000000000000    0.8040000000000000    0.0000000000000000 Pt
   0.0000000000000000    0.8040000000000000    0.1960000000000000 Pt
   0.1960000000000000    0.6080000000000000    0.1960000000000000 Pt
   0.0000000000000000    0.6080000000000000    0.3920000000000000 Pt
   0.1960000000000000    0.8040000000000000    0.3920000000000000 Pt
   0.0000000000000000    0.0000000000000000    0.6080000000000000 Pt
   0.1960000000000000    0.1960000000000000    0.6080000000000000 Pt
   0.0000000000000000    0.1960000000000000    0.8040000000000000 Pt
   0.1960000000000000    0.0000000000000000    0.8040000000000000 Pt
   0.0000000000000000    0.0000000000000000    0.0000000000000000 Pt
   0.1960000000000000    0.1960000000000000    0.0000000000000000 Pt
   0.0000000000000000    0.1960000000000000    0.1960000000000000 Pt
   0.1960000000000000    0.0000000000000000    0.1960000000000000 Pt
   0.0000000000000000    0.0000000000000000    0.3920000000000000 Pt
   0.1960000000000000    0.1960000000000000    0.3920000000000000 Pt
   0.0000000000000000    0.3920000000000000    0.6080000000000000 Pt
   0.1960000000000000    0.3920000000000000    0.8040000000000000 Pt
   0.0000000000000000    0.3920000000000000    0.0000000000000000 Pt
   0.1960000000000000    0.3920000000000000    0.1960000000000000 Pt
   0.0000000000000000    0.3920000000000000    0.3920000000000000 Pt
   0.3920000000000000    0.6080000000000000    0.6080000000000000 Pt
   0.3920000000000000    0.8040000000000000    0.8040000000000000 Pt
   0.3920000000000000    0.6080000000000000    0.0000000000000000 Pt
   0.3920000000000000    0.8040000000000000    0.1960000000000000 Pt
   0.3920000000000000    0.6080000000000000    0.3920000000000000 Pt
   0.3920000000000000    0.0000000000000000    0.6080000000000000 Pt
   0.3920000000000000    0.1960000000000000    0.8040000000000000 Pt
   0.3920000000000000    0.0000000000000000    0.0000000000000000 Pt
   0.3920000000000000    0.1960000000000000    0.1960000000000000 Pt
   0.3920000000000000    0.0000000000000000    0.3920000000000000 Pt
   0.3920000000000000    0.3920000000000000    0.6080000000000000 Pt
   0.3920000000000000    0.3920000000000000    0.0000000000000000 Pt
   0.3920000000000000    0.3920000000000000    0.3920000000000000 Pt
