H5 C2 N1 O2
1.0
  10.0000000000000000    0.0000000000000000    0.0000000000000006
   0.0000000000000016   10.0000000000000000    0.0000000000000006
   0.0000000000000000    0.0000000000000000   10.0000000000000000
H C N O
5 2 1 2
direct
  -0.1765696171548997   -0.0598011162282560    0.0162482531264238 H
  -0.0977456171548997    0.0052698837717441    0.1618642531264237 H
   0.1328733828451003   -0.1705251162282559   -0.0858967468735763 H
  -0.2208336171548999    0.1727118837717440    0.0350902531264238 H
  -0.0629296171548998    0.2112628837717440    0.0235442531264237 H
  -0.0984916171548997    0.0110438837717441    0.0508232531264238 C
   0.0385103828451002   -0.0303741162282559    0.0016312531264237 C
  -0.1326866171548998    0.1446918837717441   -0.0022597468735762 N
   0.0438703828451003   -0.1517471162282560   -0.0577217468735762 O
   0.1441053828451002    0.0295758837717441    0.0108192531264238 O
